p cnf 84 100
-1 2 0
1 3 0
1 4 0
-1 5 0
1 -6 0
1 -7 0
-2 3 1 0
2 8 0
2 -9 0
8 -9 2 0
8 -10 0
10 11 0
-11 -12 0
12 -13 0
-9 14 0
-14 -15 0
-15 -16 0
16 17 0
-3 -18 0
3 19 0
3 20 0
-18 19 -3 0
-18 21 0
-21 22 0
-22 23 0
-23 24 0
19 25 0
-25 -26 0
26 27 0
-27 28 0
20 29 0
29 -30 0
30 31 0
4 -32 0
4 -33 0
-32 33 4 0
-32 -34 0
32 -35 0
34 -35 -32 0
-34 36 0
36 37 0
35 -38 0
38 39 0
-33 -40 0
-40 -41 0
41 -42 0
42 -43 0
-5 44 0
5 -45 0
-5 46 0
44 45 5 0
44 47 0
-47 48 0
45 -49 0
45 -50 0
-49 50 -45 0
49 -51 0
-51 52 0
-52 53 0
-50 -54 0
54 -55 0
46 56 0
-46 57 0
56 -57 46 0
56 58 0
-58 59 0
-57 -60 0
60 -61 0
6 -62 0
-6 63 0
62 -63 -6 0
62 -64 0
62 -65 0
64 65 62 0
-64 -66 0
66 67 0
-65 68 0
68 69 0
63 70 0
-70 71 0
71 72 0
-72 -73 0
-7 74 0
-7 75 0
-74 75 -7 0
-74 76 0
74 77 0
-76 -77 -74 0
-76 78 0
-78 79 0
79 -80 0
-77 -81 0
-81 -82 0
-75 -83 0
83 -84 0
-24 73 0
-80 -61 0
-61 -37 0
-55 -39 0
-80 -43 67 0
